%%%mzn-stat: initTime=0.03572388
%%%mzn-stat: objective=176
%%%mzn-stat: nodes=1244
%%%mzn-stat: restarts=0
%%%mzn-stat: peakDepth=500
%%%mzn-stat: solveTime=0.161071463
%%%mzn-stat: variables=1063
%%%mzn-stat: propagators=779
%%%mzn-stat: failures=379
%%%mzn-stat: propagations=60491
%%%mzn-stat: nogoods=379
%%%mzn-stat: AverageConflictSize=7.25065963060686
%%%mzn-stat: NumUnitNogoodsLearned=175
%%%mzn-stat: AverageLearnedNogoodLength=13.248021108179419
%%%mzn-stat: AverageBacktrackAmount=0
%%%mzn-stat: AverageLbd=7
%%%mzn-stat-end
maxleg = 176;
succ = array1d(1..100,[61, 81, 100, 18, 40, 86, 57, 25, 47, 4, 9, 98, 48, 99, 2, 67, 11, 41, 28, 65, 82, 38, 10, 45, 87, 32, 69, 43, 14, 64, 7, 51, 55, 97, 52, 26, 46, 1, 89, 91, 90, 17, 37, 63, 30, 78, 68, 6, 20, 21, 71, 29, 36, 15, 66, 5, 58, 83, 19, 92, 60, 76, 53, 39, 80, 12, 95, 59, 44, 93, 85, 74, 16, 24, 22, 23, 3, 50, 62, 72, 94, 75, 13, 88, 84, 27, 35, 33, 34, 77, 96, 31, 49, 70, 8, 54, 42, 79, 56, 73]);
% time elapsed: 3.73 s
----------
==========
% time elapsed: 3.73 s
%%%mzn-stat: initTime=0.03572388
%%%mzn-stat: objective=176
%%%mzn-stat: nodes=1244
%%%mzn-stat: restarts=0
%%%mzn-stat: peakDepth=500
%%%mzn-stat: solveTime=0.161075513
%%%mzn-stat: variables=1063
%%%mzn-stat: propagators=779
%%%mzn-stat: failures=379
%%%mzn-stat: propagations=60491
%%%mzn-stat: nogoods=379
%%%mzn-stat: AverageConflictSize=7.25065963060686
%%%mzn-stat: NumUnitNogoodsLearned=175
%%%mzn-stat: AverageLearnedNogoodLength=13.248021108179419
%%%mzn-stat: AverageBacktrackAmount=0
%%%mzn-stat: AverageLbd=7
%%%mzn-stat-end
